161 5
10 10 10 10 10 

0 0 0 0 0 0 5 2 24 46 58 80 
0 0 0 0 0 0 8 3 4 5 7 8 9 10 13 
4 0 0 1 0 1 3 22 14 6 
5 0 0 4 0 6 6 22 21 19 16 14 12 
7 0 0 6 0 4 5 22 17 16 14 11 
5 0 0 2 0 5 4 21 16 12 11 
4 0 0 6 0 6 5 21 20 19 16 14 
1 0 0 6 0 8 4 21 19 16 12 
4 0 0 6 0 4 3 22 15 11 
2 0 0 4 0 3 4 20 19 16 15 
8 0 0 6 0 3 3 20 19 18 
3 0 0 2 0 5 2 20 15 
5 0 0 8 0 7 2 19 18 
6 0 0 3 0 6 1 15 
8 0 0 6 0 6 1 18 
6 0 0 8 0 7 1 18 
8 0 0 4 0 2 1 18 
1 0 0 3 0 5 1 23 
8 0 0 9 0 4 1 23 
2 0 0 7 0 5 1 23 
8 0 0 2 0 6 1 23 
2 0 0 7 0 7 1 23 
0 0 0 0 0 0 1 126 
0 0 0 0 0 0 12 25 27 30 36 37 38 39 40 41 42 43 44 
7 1 0 0 0 1 3 35 34 26 
9 5 0 0 0 7 1 28 
7 6 0 0 0 5 2 33 32 
9 4 0 0 0 6 1 29 
4 6 0 0 0 5 1 31 
9 5 0 0 0 5 1 32 
5 5 0 0 0 6 1 45 
7 5 0 0 0 4 1 45 
3 6 0 0 0 3 1 45 
8 5 0 0 0 3 1 45 
6 5 0 0 0 2 1 45 
5 6 0 0 0 8 1 45 
5 4 0 0 0 4 1 45 
9 5 0 0 0 1 1 45 
7 3 0 0 0 5 1 45 
2 7 0 0 0 8 1 45 
8 5 0 0 0 4 1 45 
2 5 0 0 0 9 1 45 
9 5 0 0 0 9 1 45 
3 7 0 0 0 5 1 45 
0 0 0 0 0 0 1 126 
0 0 0 0 0 0 5 47 48 50 55 56 
7 0 1 0 0 0 3 54 51 49 
2 0 3 0 0 0 2 53 51 
4 0 3 0 0 0 1 52 
1 0 6 0 0 0 1 51 
8 0 5 0 0 0 1 57 
2 0 6 0 0 0 1 57 
1 0 6 0 0 0 1 57 
5 0 8 0 0 0 1 57 
8 0 4 0 0 0 1 57 
2 0 8 0 0 0 1 57 
0 0 0 0 0 0 2 102 114 
0 0 0 0 0 0 6 59 60 61 63 64 67 
3 5 0 0 0 1 3 78 66 62 
3 4 0 0 0 3 4 76 71 66 65 
1 6 0 0 0 6 5 77 76 74 70 66 
1 10 0 0 0 8 3 77 76 65 
5 4 0 0 0 2 2 69 65 
1 3 0 0 0 6 2 76 66 
1 5 0 0 0 6 4 75 74 70 68 
10 7 0 0 0 8 3 75 69 68 
1 5 0 0 0 6 2 76 71 
2 6 0 0 0 5 1 73 
10 6 0 0 0 7 1 72 
2 2 0 0 0 5 1 72 
3 5 0 0 0 4 1 74 
1 5 0 0 0 7 1 79 
6 5 0 0 0 6 1 79 
8 3 0 0 0 7 1 79 
10 6 0 0 0 2 1 79 
2 4 0 0 0 3 1 79 
1 4 0 0 0 5 1 79 
10 5 0 0 0 3 1 79 
0 0 0 0 0 0 1 126 
0 0 0 0 0 0 9 81 82 83 84 85 86 89 91 94 
6 1 0 2 0 0 4 100 99 96 87 
10 1 0 5 0 0 4 99 98 93 90 
2 8 0 2 0 0 4 99 98 90 88 
9 7 0 3 0 0 4 99 98 90 88 
8 4 0 5 0 0 3 99 96 90 
5 4 0 2 0 0 3 98 93 92 
5 4 0 3 0 0 2 98 90 
7 2 0 5 0 0 3 97 96 92 
6 6 0 8 0 0 3 98 97 93 
2 5 0 7 0 0 2 97 92 
9 4 0 6 0 0 1 92 
3 10 0 6 0 0 1 95 
3 5 0 5 0 0 1 96 
2 4 0 10 0 0 1 95 
5 7 0 7 0 0 1 101 
5 3 0 6 0 0 1 101 
9 5 0 2 0 0 1 101 
1 10 0 5 0 0 1 101 
5 6 0 6 0 0 1 101 
5 4 0 5 0 0 1 101 
0 0 0 0 0 0 1 126 
0 0 0 0 0 0 4 103 104 106 107 
4 0 0 0 0 3 3 111 108 105 
7 0 0 0 0 5 2 108 105 
5 0 0 0 0 5 3 112 110 109 
9 0 0 0 0 2 3 111 110 109 
6 0 0 0 0 4 2 111 109 
5 0 0 0 0 4 1 109 
5 0 0 0 0 5 1 113 
3 0 0 0 0 8 1 113 
9 0 0 0 0 4 1 113 
1 0 0 0 0 10 1 113 
0 0 0 0 0 0 1 126 
0 0 0 0 0 0 6 115 116 117 118 119 124 
10 0 1 0 0 0 3 123 122 120 
8 0 7 0 0 0 2 122 120 
5 0 9 0 0 0 1 120 
5 0 7 0 0 0 1 120 
9 0 4 0 0 0 1 120 
9 0 4 0 0 0 1 121 
1 0 5 0 0 0 1 125 
5 0 3 0 0 0 1 125 
3 0 4 0 0 0 1 125 
5 0 6 0 0 0 1 125 
0 0 0 0 0 0 1 126 
0 0 0 0 0 0 5 127 128 130 131 136 
3 0 0 0 0 1 2 135 129 
6 0 0 0 0 3 1 129 
8 0 0 0 0 2 1 132 
8 0 0 0 0 9 1 134 
10 0 0 0 0 7 1 133 
4 0 0 0 0 6 1 137 
10 0 0 0 0 7 1 137 
6 0 0 0 0 8 1 137 
6 0 0 0 0 4 1 137 
3 0 0 0 0 3 1 137 
0 0 0 0 0 0 1 138 
0 0 0 0 0 0 2 139 140 
3 0 0 1 0 0 2 148 142 
2 0 0 7 0 0 1 141 
3 0 0 3 0 0 6 148 147 146 145 144 143 
8 0 0 3 0 0 5 147 146 145 144 143 
5 0 0 4 0 0 1 149 
8 0 0 6 0 0 1 149 
5 0 0 7 0 0 1 149 
2 0 0 3 0 0 1 149 
3 0 0 8 0 0 1 149 
1 0 0 8 0 0 1 149 
0 0 0 0 0 0 1 150 
0 0 0 0 0 0 5 151 152 153 154 157 
6 0 0 0 1 0 3 159 156 155 
1 0 0 0 4 0 3 160 159 158 
8 0 0 0 2 0 2 159 155 
9 0 0 0 6 0 2 159 158 
7 0 0 0 6 0 1 158 
5 0 0 0 8 0 1 158 
5 0 0 0 6 0 1 158 
4 0 0 0 4 0 1 161 
10 0 0 0 8 0 1 161 
9 0 0 0 5 0 1 161 
0 0 0 0 0 0 0 
